p edge 3505 3440
e 1 2
e 1 3
e 1 4
e 1 5
e 1 6
e 1 7
e 1 8
e 1 9
e 1 10
e 1 11
e 1 12
e 1 13
e 1 14
e 1 15
e 1 16
e 1 17
e 1 18
e 1 19
e 1 20
e 1 21
e 1 22
e 1 23
e 1 24
e 1 25
e 1 26
e 1 27
e 1 28
e 1 29
e 1 30
e 1 31
e 1 32
e 1 33
e 1 34
e 1 35
e 1 36
e 1 37
e 1 38
e 1 39
e 1 40
e 1 41
e 1 42
e 1 43
e 1 44
e 1 45
e 1 46
e 1 47
e 1 48
e 1 49
e 1 50
e 1 51
e 1 52
e 1 53
e 1 54
e 1 55
e 1 56
e 1 57
e 1 58
e 1 59
e 1 60
e 1 61
e 1 62
e 1 63
e 1 64
e 1 65
e 1 66
e 1 67
e 1 68
e 1 69
e 1 70
e 1 71
e 1 72
e 1 73
e 1 74
e 1 75
e 1 76
e 1 77
e 1 78
e 1 79
e 1 80
e 1 81
e 1 82
e 1 83
e 1 84
e 1 85
e 1 86
e 1 87
e 1 88
e 1 89
e 90 91
e 90 92
e 90 93
e 90 94
e 90 95
e 90 96
e 90 97
e 90 98
e 90 99
e 90 100
e 90 101
e 90 102
e 90 103
e 90 104
e 90 105
e 90 106
e 90 107
e 90 108
e 90 109
e 90 110
e 90 111
e 90 112
e 90 113
e 90 114
e 90 115
e 90 116
e 90 117
e 90 118
e 90 119
e 90 120
e 90 121
e 90 122
e 90 123
e 90 124
e 90 125
e 90 126
e 90 127
e 90 128
e 90 129
e 90 130
e 90 131
e 90 132
e 90 133
e 90 134
e 90 135
e 90 136
e 90 137
e 90 138
e 90 139
e 90 140
e 90 141
e 90 142
e 90 143
e 90 144
e 90 145
e 90 146
e 90 147
e 90 148
e 90 149
e 90 150
e 90 151
e 90 152
e 90 153
e 90 154
e 90 155
e 90 156
e 157 158
e 157 159
e 157 160
e 157 161
e 157 162
e 157 163
e 157 164
e 157 165
e 157 166
e 157 167
e 157 168
e 157 169
e 157 170
e 157 171
e 157 172
e 157 173
e 157 174
e 157 175
e 157 176
e 157 177
e 157 178
e 157 179
e 157 180
e 157 181
e 157 182
e 157 183
e 157 184
e 157 185
e 157 186
e 157 187
e 157 188
e 157 189
e 157 190
e 157 191
e 157 192
e 157 193
e 157 194
e 157 195
e 157 196
e 157 197
e 157 198
e 157 199
e 157 200
e 157 201
e 157 202
e 157 203
e 157 204
e 157 205
e 157 206
e 157 207
e 157 208
e 157 209
e 157 210
e 157 211
e 157 212
e 157 213
e 157 214
e 157 215
e 157 216
e 157 217
e 218 219
e 218 220
e 218 221
e 218 222
e 218 223
e 218 224
e 218 225
e 218 226
e 218 227
e 218 228
e 218 229
e 218 230
e 218 231
e 218 232
e 218 233
e 218 234
e 218 235
e 218 236
e 218 237
e 218 238
e 218 239
e 218 240
e 218 241
e 218 242
e 218 243
e 218 244
e 218 245
e 218 246
e 218 247
e 218 248
e 218 249
e 218 250
e 251 252
e 251 253
e 251 254
e 251 255
e 251 256
e 251 257
e 251 258
e 251 259
e 251 260
e 251 261
e 251 262
e 251 263
e 251 264
e 251 265
e 251 266
e 251 267
e 251 268
e 251 269
e 251 270
e 251 271
e 251 272
e 251 273
e 251 274
e 251 275
e 251 276
e 251 277
e 251 278
e 251 279
e 251 280
e 251 281
e 251 282
e 251 283
e 251 284
e 251 285
e 251 286
e 251 287
e 251 288
e 251 289
e 251 290
e 251 291
e 251 292
e 251 293
e 251 294
e 251 295
e 251 296
e 251 297
e 251 298
e 251 299
e 251 300
e 251 301
e 251 302
e 251 303
e 251 304
e 251 305
e 251 306
e 251 307
e 251 308
e 251 309
e 251 310
e 251 311
e 251 312
e 251 313
e 251 314
e 251 315
e 251 316
e 251 317
e 251 318
e 251 319
e 251 320
e 251 321
e 251 322
e 251 323
e 251 324
e 251 325
e 251 326
e 327 328
e 327 329
e 327 330
e 327 331
e 327 332
e 327 333
e 327 334
e 327 335
e 327 336
e 327 337
e 327 338
e 327 339
e 327 340
e 327 341
e 327 342
e 327 343
e 327 344
e 327 345
e 327 346
e 327 347
e 327 348
e 327 349
e 327 350
e 327 351
e 327 352
e 327 353
e 327 354
e 327 355
e 327 356
e 327 357
e 327 358
e 327 359
e 327 360
e 327 361
e 327 362
e 327 363
e 327 364
e 327 365
e 327 366
e 327 367
e 327 368
e 327 369
e 327 370
e 327 371
e 327 372
e 327 373
e 327 374
e 327 375
e 327 376
e 327 377
e 327 378
e 327 379
e 327 380
e 327 381
e 382 383
e 382 384
e 382 385
e 382 386
e 382 387
e 382 388
e 382 389
e 382 390
e 382 391
e 382 392
e 382 393
e 382 394
e 382 395
e 382 396
e 382 397
e 382 398
e 382 399
e 382 400
e 382 401
e 382 402
e 403 404
e 403 405
e 403 406
e 403 407
e 403 408
e 403 409
e 403 410
e 403 411
e 403 412
e 403 413
e 403 414
e 403 415
e 403 416
e 403 417
e 403 418
e 403 419
e 420 421
e 420 422
e 420 423
e 420 424
e 420 425
e 420 426
e 420 427
e 420 428
e 420 429
e 420 430
e 420 431
e 420 432
e 420 433
e 420 434
e 420 435
e 420 436
e 420 437
e 420 438
e 420 439
e 420 440
e 420 441
e 420 442
e 420 443
e 420 444
e 420 445
e 420 446
e 420 447
e 420 448
e 420 449
e 420 450
e 420 451
e 420 452
e 420 453
e 420 454
e 420 455
e 420 456
e 420 457
e 420 458
e 420 459
e 420 460
e 420 461
e 420 462
e 420 463
e 420 464
e 420 465
e 420 466
e 420 467
e 420 468
e 420 469
e 420 470
e 420 471
e 420 472
e 420 473
e 420 474
e 420 475
e 420 476
e 420 477
e 420 478
e 420 479
e 420 480
e 420 481
e 420 482
e 420 483
e 484 485
e 484 486
e 484 487
e 484 488
e 484 489
e 484 490
e 484 491
e 484 492
e 484 493
e 484 494
e 484 495
e 496 497
e 496 498
e 496 499
e 496 500
e 496 501
e 496 502
e 496 503
e 496 504
e 496 505
e 496 506
e 496 507
e 496 508
e 496 509
e 496 510
e 496 511
e 496 512
e 496 513
e 496 514
e 496 515
e 496 516
e 496 517
e 496 518
e 496 519
e 496 520
e 496 521
e 496 522
e 496 523
e 496 524
e 496 525
e 496 526
e 496 527
e 496 528
e 496 529
e 496 530
e 531 532
e 531 533
e 531 534
e 531 535
e 531 536
e 531 537
e 531 538
e 531 539
e 531 540
e 531 541
e 531 542
e 531 543
e 531 544
e 531 545
e 531 546
e 531 547
e 531 548
e 531 549
e 531 550
e 531 551
e 531 552
e 531 553
e 531 554
e 531 555
e 531 556
e 531 557
e 531 558
e 559 560
e 559 561
e 559 562
e 559 563
e 559 564
e 559 565
e 559 566
e 559 567
e 559 568
e 559 569
e 559 570
e 559 571
e 559 572
e 573 574
e 573 575
e 573 576
e 573 577
e 573 578
e 573 579
e 573 580
e 573 581
e 573 582
e 573 583
e 573 584
e 573 585
e 573 586
e 573 587
e 573 588
e 573 589
e 573 590
e 573 591
e 573 592
e 573 593
e 573 594
e 573 595
e 573 596
e 573 597
e 573 598
e 573 599
e 573 600
e 573 601
e 573 602
e 573 603
e 573 604
e 573 605
e 573 606
e 573 607
e 573 608
e 573 609
e 573 610
e 573 611
e 573 612
e 573 613
e 573 614
e 573 615
e 573 616
e 573 617
e 573 618
e 573 619
e 573 620
e 573 621
e 573 622
e 573 623
e 573 624
e 573 625
e 573 626
e 573 627
e 573 628
e 573 629
e 573 630
e 573 631
e 573 632
e 573 633
e 573 634
e 573 635
e 573 636
e 573 637
e 573 638
e 573 639
e 573 640
e 573 641
e 573 642
e 573 643
e 573 644
e 573 645
e 573 646
e 573 647
e 573 648
e 649 650
e 649 651
e 649 652
e 649 653
e 649 654
e 649 655
e 649 656
e 649 657
e 649 658
e 649 659
e 649 660
e 649 661
e 649 662
e 649 663
e 649 664
e 649 665
e 649 666
e 649 667
e 649 668
e 649 669
e 649 670
e 649 671
e 649 672
e 649 673
e 649 674
e 649 675
e 649 676
e 649 677
e 649 678
e 649 679
e 649 680
e 649 681
e 649 682
e 649 683
e 649 684
e 649 685
e 686 687
e 686 688
e 686 689
e 686 690
e 686 691
e 686 692
e 686 693
e 686 694
e 686 695
e 686 696
e 686 697
e 686 698
e 686 699
e 686 700
e 686 701
e 686 702
e 686 703
e 704 705
e 704 706
e 704 707
e 704 708
e 704 709
e 704 710
e 704 711
e 704 712
e 704 713
e 704 714
e 704 715
e 704 716
e 704 717
e 704 718
e 704 719
e 704 720
e 704 721
e 704 722
e 704 723
e 704 724
e 704 725
e 704 726
e 704 727
e 704 728
e 704 729
e 704 730
e 704 731
e 704 732
e 704 733
e 704 734
e 704 735
e 704 736
e 704 737
e 704 738
e 704 739
e 704 740
e 704 741
e 704 742
e 704 743
e 704 744
e 704 745
e 704 746
e 704 747
e 704 748
e 704 749
e 704 750
e 704 751
e 704 752
e 704 753
e 704 754
e 704 755
e 704 756
e 704 757
e 704 758
e 704 759
e 704 760
e 704 761
e 704 762
e 704 763
e 704 764
e 704 765
e 704 766
e 704 767
e 704 768
e 704 769
e 704 770
e 704 771
e 704 772
e 704 773
e 704 774
e 704 775
e 704 776
e 704 777
e 704 778
e 704 779
e 704 780
e 704 781
e 704 782
e 704 783
e 704 784
e 704 785
e 704 786
e 704 787
e 704 788
e 704 789
e 704 790
e 704 791
e 704 792
e 704 793
e 794 795
e 794 796
e 794 797
e 794 798
e 794 799
e 794 800
e 794 801
e 794 802
e 794 803
e 794 804
e 794 805
e 794 806
e 794 807
e 794 808
e 794 809
e 794 810
e 794 811
e 794 812
e 794 813
e 794 814
e 794 815
e 794 816
e 794 817
e 794 818
e 794 819
e 794 820
e 794 821
e 794 822
e 794 823
e 794 824
e 794 825
e 794 826
e 794 827
e 794 828
e 794 829
e 794 830
e 794 831
e 794 832
e 794 833
e 794 834
e 794 835
e 794 836
e 794 837
e 794 838
e 794 839
e 794 840
e 794 841
e 794 842
e 794 843
e 794 844
e 794 845
e 794 846
e 794 847
e 794 848
e 794 849
e 794 850
e 794 851
e 794 852
e 794 853
e 794 854
e 794 855
e 794 856
e 794 857
e 794 858
e 794 859
e 860 861
e 860 862
e 860 863
e 860 864
e 860 865
e 860 866
e 860 867
e 860 868
e 860 869
e 860 870
e 860 871
e 860 872
e 860 873
e 860 874
e 860 875
e 860 876
e 860 877
e 860 878
e 860 879
e 860 880
e 860 881
e 860 882
e 860 883
e 860 884
e 860 885
e 860 886
e 860 887
e 860 888
e 860 889
e 860 890
e 860 891
e 860 892
e 860 893
e 860 894
e 860 895
e 860 896
e 860 897
e 860 898
e 860 899
e 860 900
e 860 901
e 860 902
e 860 903
e 860 904
e 860 905
e 860 906
e 860 907
e 860 908
e 860 909
e 860 910
e 860 911
e 860 912
e 860 913
e 860 914
e 860 915
e 860 916
e 860 917
e 860 918
e 860 919
e 860 920
e 860 921
e 860 922
e 860 923
e 860 924
e 860 925
e 860 926
e 860 927
e 928 929
e 928 930
e 928 931
e 928 932
e 928 933
e 928 934
e 928 935
e 928 936
e 928 937
e 928 938
e 928 939
e 928 940
e 928 941
e 928 942
e 928 943
e 928 944
e 928 945
e 928 946
e 928 947
e 928 948
e 928 949
e 928 950
e 928 951
e 928 952
e 928 953
e 928 954
e 928 955
e 928 956
e 928 957
e 928 958
e 928 959
e 928 960
e 928 961
e 928 962
e 928 963
e 928 964
e 928 965
e 928 966
e 928 967
e 928 968
e 928 969
e 928 970
e 928 971
e 928 972
e 928 973
e 928 974
e 928 975
e 928 976
e 928 977
e 928 978
e 928 979
e 928 980
e 928 981
e 928 982
e 928 983
e 928 984
e 928 985
e 928 986
e 928 987
e 928 988
e 928 989
e 928 990
e 928 991
e 928 992
e 993 994
e 993 995
e 993 996
e 993 997
e 993 998
e 993 999
e 993 1000
e 993 1001
e 993 1002
e 993 1003
e 993 1004
e 993 1005
e 993 1006
e 993 1007
e 993 1008
e 993 1009
e 993 1010
e 993 1011
e 993 1012
e 993 1013
e 993 1014
e 993 1015
e 993 1016
e 993 1017
e 993 1018
e 993 1019
e 993 1020
e 993 1021
e 993 1022
e 993 1023
e 993 1024
e 993 1025
e 993 1026
e 993 1027
e 993 1028
e 993 1029
e 993 1030
e 993 1031
e 993 1032
e 993 1033
e 993 1034
e 993 1035
e 993 1036
e 993 1037
e 993 1038
e 993 1039
e 993 1040
e 993 1041
e 993 1042
e 993 1043
e 993 1044
e 993 1045
e 993 1046
e 993 1047
e 993 1048
e 993 1049
e 993 1050
e 993 1051
e 993 1052
e 993 1053
e 993 1054
e 993 1055
e 993 1056
e 993 1057
e 993 1058
e 993 1059
e 993 1060
e 993 1061
e 993 1062
e 993 1063
e 993 1064
e 993 1065
e 993 1066
e 993 1067
e 993 1068
e 993 1069
e 993 1070
e 993 1071
e 993 1072
e 993 1073
e 993 1074
e 993 1075
e 993 1076
e 993 1077
e 993 1078
e 993 1079
e 993 1080
e 993 1081
e 1082 1083
e 1082 1084
e 1082 1085
e 1082 1086
e 1082 1087
e 1082 1088
e 1082 1089
e 1082 1090
e 1082 1091
e 1082 1092
e 1082 1093
e 1082 1094
e 1082 1095
e 1082 1096
e 1082 1097
e 1082 1098
e 1082 1099
e 1082 1100
e 1082 1101
e 1082 1102
e 1082 1103
e 1082 1104
e 1082 1105
e 1082 1106
e 1082 1107
e 1082 1108
e 1082 1109
e 1082 1110
e 1082 1111
e 1082 1112
e 1082 1113
e 1082 1114
e 1082 1115
e 1082 1116
e 1082 1117
e 1082 1118
e 1082 1119
e 1082 1120
e 1082 1121
e 1082 1122
e 1082 1123
e 1082 1124
e 1082 1125
e 1082 1126
e 1082 1127
e 1082 1128
e 1082 1129
e 1082 1130
e 1082 1131
e 1082 1132
e 1082 1133
e 1082 1134
e 1082 1135
e 1082 1136
e 1082 1137
e 1082 1138
e 1082 1139
e 1082 1140
e 1082 1141
e 1142 1143
e 1142 1144
e 1142 1145
e 1142 1146
e 1142 1147
e 1142 1148
e 1142 1149
e 1142 1150
e 1142 1151
e 1142 1152
e 1142 1153
e 1142 1154
e 1142 1155
e 1142 1156
e 1142 1157
e 1142 1158
e 1142 1159
e 1142 1160
e 1142 1161
e 1142 1162
e 1142 1163
e 1142 1164
e 1142 1165
e 1142 1166
e 1142 1167
e 1142 1168
e 1142 1169
e 1142 1170
e 1142 1171
e 1142 1172
e 1142 1173
e 1142 1174
e 1142 1175
e 1142 1176
e 1142 1177
e 1142 1178
e 1142 1179
e 1142 1180
e 1142 1181
e 1142 1182
e 1142 1183
e 1142 1184
e 1142 1185
e 1142 1186
e 1142 1187
e 1142 1188
e 1142 1189
e 1142 1190
e 1142 1191
e 1142 1192
e 1142 1193
e 1142 1194
e 1142 1195
e 1142 1196
e 1142 1197
e 1142 1198
e 1142 1199
e 1142 1200
e 1142 1201
e 1142 1202
e 1142 1203
e 1142 1204
e 1142 1205
e 1206 1207
e 1206 1208
e 1206 1209
e 1206 1210
e 1206 1211
e 1206 1212
e 1206 1213
e 1206 1214
e 1206 1215
e 1206 1216
e 1206 1217
e 1206 1218
e 1206 1219
e 1206 1220
e 1206 1221
e 1206 1222
e 1206 1223
e 1206 1224
e 1206 1225
e 1206 1226
e 1206 1227
e 1206 1228
e 1206 1229
e 1206 1230
e 1206 1231
e 1206 1232
e 1206 1233
e 1206 1234
e 1206 1235
e 1206 1236
e 1206 1237
e 1206 1238
e 1206 1239
e 1206 1240
e 1206 1241
e 1206 1242
e 1206 1243
e 1206 1244
e 1206 1245
e 1206 1246
e 1206 1247
e 1206 1248
e 1206 1249
e 1206 1250
e 1206 1251
e 1206 1252
e 1206 1253
e 1206 1254
e 1206 1255
e 1206 1256
e 1206 1257
e 1206 1258
e 1206 1259
e 1206 1260
e 1206 1261
e 1206 1262
e 1206 1263
e 1206 1264
e 1206 1265
e 1206 1266
e 1206 1267
e 1206 1268
e 1206 1269
e 1206 1270
e 1206 1271
e 1206 1272
e 1206 1273
e 1206 1274
e 1206 1275
e 1206 1276
e 1206 1277
e 1206 1278
e 1206 1279
e 1206 1280
e 1206 1281
e 1206 1282
e 1206 1283
e 1206 1284
e 1206 1285
e 1206 1286
e 1206 1287
e 1288 1289
e 1288 1290
e 1288 1291
e 1288 1292
e 1288 1293
e 1288 1294
e 1288 1295
e 1288 1296
e 1288 1297
e 1288 1298
e 1288 1299
e 1288 1300
e 1288 1301
e 1288 1302
e 1288 1303
e 1288 1304
e 1288 1305
e 1288 1306
e 1288 1307
e 1288 1308
e 1288 1309
e 1288 1310
e 1288 1311
e 1288 1312
e 1288 1313
e 1288 1314
e 1288 1315
e 1288 1316
e 1288 1317
e 1288 1318
e 1288 1319
e 1288 1320
e 1288 1321
e 1288 1322
e 1288 1323
e 1288 1324
e 1325 1326
e 1325 1327
e 1325 1328
e 1325 1329
e 1325 1330
e 1325 1331
e 1325 1332
e 1325 1333
e 1325 1334
e 1325 1335
e 1325 1336
e 1325 1337
e 1325 1338
e 1325 1339
e 1325 1340
e 1325 1341
e 1325 1342
e 1325 1343
e 1325 1344
e 1325 1345
e 1325 1346
e 1325 1347
e 1325 1348
e 1325 1349
e 1325 1350
e 1325 1351
e 1325 1352
e 1325 1353
e 1325 1354
e 1325 1355
e 1325 1356
e 1325 1357
e 1325 1358
e 1325 1359
e 1325 1360
e 1325 1361
e 1325 1362
e 1325 1363
e 1325 1364
e 1325 1365
e 1325 1366
e 1325 1367
e 1325 1368
e 1325 1369
e 1325 1370
e 1325 1371
e 1325 1372
e 1325 1373
e 1325 1374
e 1325 1375
e 1325 1376
e 1325 1377
e 1325 1378
e 1325 1379
e 1325 1380
e 1325 1381
e 1325 1382
e 1325 1383
e 1325 1384
e 1325 1385
e 1325 1386
e 1325 1387
e 1325 1388
e 1325 1389
e 1325 1390
e 1325 1391
e 1325 1392
e 1325 1393
e 1325 1394
e 1325 1395
e 1325 1396
e 1325 1397
e 1325 1398
e 1325 1399
e 1325 1400
e 1325 1401
e 1325 1402
e 1325 1403
e 1325 1404
e 1325 1405
e 1325 1406
e 1325 1407
e 1325 1408
e 1325 1409
e 1325 1410
e 1325 1411
e 1412 1413
e 1412 1414
e 1412 1415
e 1412 1416
e 1412 1417
e 1412 1418
e 1412 1419
e 1412 1420
e 1412 1421
e 1412 1422
e 1412 1423
e 1412 1424
e 1412 1425
e 1412 1426
e 1412 1427
e 1412 1428
e 1412 1429
e 1412 1430
e 1412 1431
e 1412 1432
e 1412 1433
e 1412 1434
e 1412 1435
e 1412 1436
e 1412 1437
e 1412 1438
e 1412 1439
e 1412 1440
e 1412 1441
e 1412 1442
e 1412 1443
e 1412 1444
e 1412 1445
e 1412 1446
e 1412 1447
e 1412 1448
e 1412 1449
e 1412 1450
e 1412 1451
e 1412 1452
e 1412 1453
e 1412 1454
e 1412 1455
e 1412 1456
e 1412 1457
e 1412 1458
e 1412 1459
e 1412 1460
e 1412 1461
e 1412 1462
e 1412 1463
e 1412 1464
e 1412 1465
e 1412 1466
e 1412 1467
e 1412 1468
e 1412 1469
e 1412 1470
e 1412 1471
e 1412 1472
e 1412 1473
e 1412 1474
e 1412 1475
e 1412 1476
e 1412 1477
e 1412 1478
e 1412 1479
e 1412 1480
e 1412 1481
e 1412 1482
e 1412 1483
e 1412 1484
e 1412 1485
e 1412 1486
e 1412 1487
e 1412 1488
e 1412 1489
e 1490 1491
e 1490 1492
e 1490 1493
e 1490 1494
e 1490 1495
e 1490 1496
e 1490 1497
e 1490 1498
e 1490 1499
e 1490 1500
e 1490 1501
e 1490 1502
e 1490 1503
e 1490 1504
e 1490 1505
e 1490 1506
e 1490 1507
e 1490 1508
e 1490 1509
e 1490 1510
e 1490 1511
e 1490 1512
e 1490 1513
e 1490 1514
e 1490 1515
e 1490 1516
e 1490 1517
e 1490 1518
e 1490 1519
e 1490 1520
e 1490 1521
e 1490 1522
e 1490 1523
e 1490 1524
e 1490 1525
e 1490 1526
e 1490 1527
e 1490 1528
e 1490 1529
e 1490 1530
e 1490 1531
e 1490 1532
e 1490 1533
e 1490 1534
e 1490 1535
e 1490 1536
e 1490 1537
e 1490 1538
e 1490 1539
e 1490 1540
e 1490 1541
e 1490 1542
e 1490 1543
e 1544 1545
e 1544 1546
e 1544 1547
e 1544 1548
e 1544 1549
e 1544 1550
e 1544 1551
e 1544 1552
e 1544 1553
e 1544 1554
e 1544 1555
e 1544 1556
e 1544 1557
e 1544 1558
e 1544 1559
e 1544 1560
e 1544 1561
e 1544 1562
e 1544 1563
e 1544 1564
e 1544 1565
e 1544 1566
e 1544 1567
e 1544 1568
e 1544 1569
e 1570 1571
e 1570 1572
e 1570 1573
e 1570 1574
e 1570 1575
e 1570 1576
e 1570 1577
e 1570 1578
e 1570 1579
e 1570 1580
e 1570 1581
e 1570 1582
e 1570 1583
e 1570 1584
e 1570 1585
e 1570 1586
e 1570 1587
e 1570 1588
e 1570 1589
e 1570 1590
e 1570 1591
e 1570 1592
e 1570 1593
e 1570 1594
e 1570 1595
e 1570 1596
e 1570 1597
e 1570 1598
e 1570 1599
e 1570 1600
e 1570 1601
e 1570 1602
e 1570 1603
e 1570 1604
e 1570 1605
e 1570 1606
e 1570 1607
e 1570 1608
e 1570 1609
e 1570 1610
e 1570 1611
e 1612 1613
e 1612 1614
e 1612 1615
e 1612 1616
e 1612 1617
e 1612 1618
e 1612 1619
e 1612 1620
e 1612 1621
e 1612 1622
e 1612 1623
e 1612 1624
e 1612 1625
e 1612 1626
e 1612 1627
e 1612 1628
e 1612 1629
e 1612 1630
e 1612 1631
e 1612 1632
e 1612 1633
e 1612 1634
e 1612 1635
e 1612 1636
e 1612 1637
e 1612 1638
e 1612 1639
e 1612 1640
e 1612 1641
e 1612 1642
e 1612 1643
e 1612 1644
e 1612 1645
e 1612 1646
e 1612 1647
e 1612 1648
e 1612 1649
e 1612 1650
e 1612 1651
e 1612 1652
e 1612 1653
e 1612 1654
e 1612 1655
e 1612 1656
e 1612 1657
e 1612 1658
e 1612 1659
e 1612 1660
e 1612 1661
e 1612 1662
e 1612 1663
e 1612 1664
e 1612 1665
e 1612 1666
e 1612 1667
e 1668 1669
e 1668 1670
e 1668 1671
e 1668 1672
e 1668 1673
e 1668 1674
e 1668 1675
e 1668 1676
e 1668 1677
e 1668 1678
e 1668 1679
e 1668 1680
e 1668 1681
e 1668 1682
e 1668 1683
e 1668 1684
e 1668 1685
e 1668 1686
e 1668 1687
e 1668 1688
e 1668 1689
e 1668 1690
e 1668 1691
e 1668 1692
e 1668 1693
e 1668 1694
e 1668 1695
e 1668 1696
e 1668 1697
e 1668 1698
e 1668 1699
e 1668 1700
e 1668 1701
e 1668 1702
e 1668 1703
e 1668 1704
e 1668 1705
e 1668 1706
e 1668 1707
e 1668 1708
e 1668 1709
e 1668 1710
e 1668 1711
e 1668 1712
e 1668 1713
e 1668 1714
e 1668 1715
e 1668 1716
e 1668 1717
e 1668 1718
e 1668 1719
e 1668 1720
e 1668 1721
e 1668 1722
e 1668 1723
e 1668 1724
e 1668 1725
e 1668 1726
e 1668 1727
e 1668 1728
e 1668 1729
e 1668 1730
e 1668 1731
e 1668 1732
e 1668 1733
e 1668 1734
e 1668 1735
e 1668 1736
e 1668 1737
e 1668 1738
e 1668 1739
e 1668 1740
e 1668 1741
e 1668 1742
e 1668 1743
e 1668 1744
e 1668 1745
e 1668 1746
e 1668 1747
e 1668 1748
e 1668 1749
e 1668 1750
e 1668 1751
e 1668 1752
e 1668 1753
e 1668 1754
e 1755 1756
e 1755 1757
e 1755 1758
e 1755 1759
e 1755 1760
e 1755 1761
e 1755 1762
e 1755 1763
e 1755 1764
e 1755 1765
e 1755 1766
e 1755 1767
e 1755 1768
e 1755 1769
e 1755 1770
e 1755 1771
e 1755 1772
e 1755 1773
e 1755 1774
e 1755 1775
e 1755 1776
e 1755 1777
e 1755 1778
e 1755 1779
e 1755 1780
e 1755 1781
e 1755 1782
e 1755 1783
e 1755 1784
e 1755 1785
e 1755 1786
e 1755 1787
e 1755 1788
e 1755 1789
e 1755 1790
e 1755 1791
e 1755 1792
e 1755 1793
e 1755 1794
e 1755 1795
e 1755 1796
e 1797 1798
e 1797 1799
e 1797 1800
e 1797 1801
e 1797 1802
e 1797 1803
e 1797 1804
e 1797 1805
e 1797 1806
e 1797 1807
e 1797 1808
e 1797 1809
e 1797 1810
e 1797 1811
e 1797 1812
e 1797 1813
e 1797 1814
e 1797 1815
e 1797 1816
e 1797 1817
e 1797 1818
e 1797 1819
e 1797 1820
e 1797 1821
e 1797 1822
e 1797 1823
e 1824 1825
e 1824 1826
e 1824 1827
e 1824 1828
e 1824 1829
e 1824 1830
e 1824 1831
e 1824 1832
e 1824 1833
e 1824 1834
e 1824 1835
e 1824 1836
e 1824 1837
e 1824 1838
e 1824 1839
e 1824 1840
e 1824 1841
e 1824 1842
e 1824 1843
e 1824 1844
e 1824 1845
e 1824 1846
e 1824 1847
e 1824 1848
e 1824 1849
e 1824 1850
e 1824 1851
e 1824 1852
e 1824 1853
e 1824 1854
e 1824 1855
e 1824 1856
e 1824 1857
e 1824 1858
e 1859 1860
e 1859 1861
e 1859 1862
e 1859 1863
e 1859 1864
e 1859 1865
e 1859 1866
e 1859 1867
e 1859 1868
e 1859 1869
e 1859 1870
e 1859 1871
e 1859 1872
e 1859 1873
e 1859 1874
e 1859 1875
e 1859 1876
e 1859 1877
e 1859 1878
e 1859 1879
e 1859 1880
e 1859 1881
e 1859 1882
e 1859 1883
e 1859 1884
e 1859 1885
e 1859 1886
e 1859 1887
e 1859 1888
e 1859 1889
e 1859 1890
e 1859 1891
e 1859 1892
e 1859 1893
e 1859 1894
e 1859 1895
e 1859 1896
e 1859 1897
e 1859 1898
e 1859 1899
e 1859 1900
e 1859 1901
e 1859 1902
e 1859 1903
e 1859 1904
e 1859 1905
e 1859 1906
e 1859 1907
e 1859 1908
e 1859 1909
e 1859 1910
e 1859 1911
e 1912 1913
e 1912 1914
e 1912 1915
e 1912 1916
e 1912 1917
e 1912 1918
e 1912 1919
e 1912 1920
e 1912 1921
e 1912 1922
e 1912 1923
e 1912 1924
e 1912 1925
e 1912 1926
e 1912 1927
e 1912 1928
e 1912 1929
e 1912 1930
e 1912 1931
e 1912 1932
e 1912 1933
e 1912 1934
e 1912 1935
e 1912 1936
e 1912 1937
e 1912 1938
e 1912 1939
e 1912 1940
e 1912 1941
e 1912 1942
e 1912 1943
e 1912 1944
e 1912 1945
e 1912 1946
e 1912 1947
e 1912 1948
e 1912 1949
e 1912 1950
e 1912 1951
e 1912 1952
e 1912 1953
e 1912 1954
e 1912 1955
e 1912 1956
e 1957 1958
e 1957 1959
e 1957 1960
e 1957 1961
e 1957 1962
e 1957 1963
e 1957 1964
e 1957 1965
e 1957 1966
e 1957 1967
e 1957 1968
e 1957 1969
e 1957 1970
e 1957 1971
e 1957 1972
e 1957 1973
e 1957 1974
e 1957 1975
e 1957 1976
e 1957 1977
e 1957 1978
e 1957 1979
e 1957 1980
e 1957 1981
e 1957 1982
e 1957 1983
e 1957 1984
e 1957 1985
e 1957 1986
e 1957 1987
e 1957 1988
e 1957 1989
e 1957 1990
e 1957 1991
e 1957 1992
e 1957 1993
e 1957 1994
e 1957 1995
e 1957 1996
e 1957 1997
e 1957 1998
e 1957 1999
e 1957 2000
e 1957 2001
e 1957 2002
e 1957 2003
e 1957 2004
e 1957 2005
e 1957 2006
e 1957 2007
e 1957 2008
e 1957 2009
e 1957 2010
e 1957 2011
e 1957 2012
e 1957 2013
e 1957 2014
e 1957 2015
e 1957 2016
e 1957 2017
e 1957 2018
e 1957 2019
e 2020 2021
e 2020 2022
e 2020 2023
e 2020 2024
e 2020 2025
e 2020 2026
e 2020 2027
e 2020 2028
e 2020 2029
e 2020 2030
e 2031 2032
e 2031 2033
e 2031 2034
e 2031 2035
e 2031 2036
e 2031 2037
e 2031 2038
e 2031 2039
e 2031 2040
e 2031 2041
e 2031 2042
e 2031 2043
e 2031 2044
e 2031 2045
e 2031 2046
e 2031 2047
e 2031 2048
e 2031 2049
e 2031 2050
e 2031 2051
e 2031 2052
e 2031 2053
e 2031 2054
e 2031 2055
e 2031 2056
e 2031 2057
e 2031 2058
e 2031 2059
e 2031 2060
e 2031 2061
e 2031 2062
e 2031 2063
e 2031 2064
e 2031 2065
e 2031 2066
e 2031 2067
e 2031 2068
e 2031 2069
e 2031 2070
e 2031 2071
e 2031 2072
e 2031 2073
e 2031 2074
e 2031 2075
e 2031 2076
e 2031 2077
e 2031 2078
e 2031 2079
e 2031 2080
e 2031 2081
e 2031 2082
e 2031 2083
e 2031 2084
e 2031 2085
e 2031 2086
e 2031 2087
e 2031 2088
e 2031 2089
e 2031 2090
e 2031 2091
e 2031 2092
e 2031 2093
e 2031 2094
e 2031 2095
e 2031 2096
e 2031 2097
e 2031 2098
e 2031 2099
e 2031 2100
e 2031 2101
e 2031 2102
e 2031 2103
e 2031 2104
e 2031 2105
e 2031 2106
e 2031 2107
e 2031 2108
e 2031 2109
e 2031 2110
e 2031 2111
e 2031 2112
e 2031 2113
e 2031 2114
e 2031 2115
e 2031 2116
e 2031 2117
e 2031 2118
e 2031 2119
e 2031 2120
e 2121 2122
e 2121 2123
e 2121 2124
e 2121 2125
e 2121 2126
e 2121 2127
e 2121 2128
e 2121 2129
e 2121 2130
e 2121 2131
e 2121 2132
e 2121 2133
e 2121 2134
e 2121 2135
e 2121 2136
e 2121 2137
e 2121 2138
e 2121 2139
e 2121 2140
e 2121 2141
e 2121 2142
e 2121 2143
e 2121 2144
e 2121 2145
e 2146 2147
e 2146 2148
e 2146 2149
e 2146 2150
e 2146 2151
e 2146 2152
e 2146 2153
e 2146 2154
e 2146 2155
e 2146 2156
e 2146 2157
e 2146 2158
e 2146 2159
e 2146 2160
e 2146 2161
e 2146 2162
e 2146 2163
e 2146 2164
e 2146 2165
e 2166 2167
e 2166 2168
e 2166 2169
e 2166 2170
e 2166 2171
e 2166 2172
e 2166 2173
e 2166 2174
e 2166 2175
e 2166 2176
e 2166 2177
e 2166 2178
e 2166 2179
e 2166 2180
e 2166 2181
e 2166 2182
e 2166 2183
e 2166 2184
e 2166 2185
e 2166 2186
e 2166 2187
e 2166 2188
e 2166 2189
e 2166 2190
e 2166 2191
e 2166 2192
e 2166 2193
e 2166 2194
e 2166 2195
e 2166 2196
e 2166 2197
e 2166 2198
e 2166 2199
e 2166 2200
e 2166 2201
e 2166 2202
e 2166 2203
e 2166 2204
e 2166 2205
e 2166 2206
e 2166 2207
e 2166 2208
e 2166 2209
e 2166 2210
e 2166 2211
e 2166 2212
e 2166 2213
e 2166 2214
e 2166 2215
e 2166 2216
e 2166 2217
e 2166 2218
e 2166 2219
e 2166 2220
e 2166 2221
e 2166 2222
e 2166 2223
e 2166 2224
e 2166 2225
e 2166 2226
e 2166 2227
e 2166 2228
e 2166 2229
e 2166 2230
e 2166 2231
e 2166 2232
e 2166 2233
e 2166 2234
e 2166 2235
e 2166 2236
e 2166 2237
e 2166 2238
e 2166 2239
e 2166 2240
e 2166 2241
e 2166 2242
e 2166 2243
e 2166 2244
e 2166 2245
e 2166 2246
e 2166 2247
e 2166 2248
e 2166 2249
e 2166 2250
e 2166 2251
e 2166 2252
e 2166 2253
e 2254 2255
e 2254 2256
e 2254 2257
e 2254 2258
e 2254 2259
e 2254 2260
e 2254 2261
e 2254 2262
e 2254 2263
e 2254 2264
e 2254 2265
e 2254 2266
e 2254 2267
e 2254 2268
e 2254 2269
e 2254 2270
e 2254 2271
e 2272 2273
e 2272 2274
e 2272 2275
e 2272 2276
e 2272 2277
e 2272 2278
e 2272 2279
e 2272 2280
e 2272 2281
e 2272 2282
e 2272 2283
e 2272 2284
e 2272 2285
e 2272 2286
e 2272 2287
e 2272 2288
e 2272 2289
e 2272 2290
e 2272 2291
e 2272 2292
e 2272 2293
e 2272 2294
e 2272 2295
e 2272 2296
e 2272 2297
e 2272 2298
e 2272 2299
e 2272 2300
e 2301 2302
e 2301 2303
e 2301 2304
e 2301 2305
e 2301 2306
e 2301 2307
e 2301 2308
e 2301 2309
e 2301 2310
e 2301 2311
e 2301 2312
e 2301 2313
e 2301 2314
e 2301 2315
e 2301 2316
e 2301 2317
e 2301 2318
e 2301 2319
e 2301 2320
e 2301 2321
e 2301 2322
e 2301 2323
e 2301 2324
e 2301 2325
e 2301 2326
e 2301 2327
e 2301 2328
e 2301 2329
e 2301 2330
e 2301 2331
e 2301 2332
e 2301 2333
e 2301 2334
e 2301 2335
e 2301 2336
e 2301 2337
e 2301 2338
e 2301 2339
e 2301 2340
e 2301 2341
e 2301 2342
e 2301 2343
e 2301 2344
e 2301 2345
e 2301 2346
e 2301 2347
e 2301 2348
e 2301 2349
e 2301 2350
e 2301 2351
e 2301 2352
e 2301 2353
e 2301 2354
e 2301 2355
e 2301 2356
e 2301 2357
e 2301 2358
e 2301 2359
e 2301 2360
e 2301 2361
e 2301 2362
e 2301 2363
e 2301 2364
e 2301 2365
e 2301 2366
e 2301 2367
e 2301 2368
e 2301 2369
e 2301 2370
e 2301 2371
e 2301 2372
e 2301 2373
e 2301 2374
e 2301 2375
e 2301 2376
e 2301 2377
e 2301 2378
e 2379 2380
e 2379 2381
e 2379 2382
e 2379 2383
e 2379 2384
e 2379 2385
e 2379 2386
e 2379 2387
e 2379 2388
e 2379 2389
e 2379 2390
e 2379 2391
e 2379 2392
e 2379 2393
e 2379 2394
e 2379 2395
e 2379 2396
e 2379 2397
e 2379 2398
e 2379 2399
e 2379 2400
e 2379 2401
e 2379 2402
e 2379 2403
e 2379 2404
e 2379 2405
e 2379 2406
e 2379 2407
e 2379 2408
e 2379 2409
e 2379 2410
e 2379 2411
e 2379 2412
e 2379 2413
e 2379 2414
e 2379 2415
e 2379 2416
e 2379 2417
e 2379 2418
e 2379 2419
e 2379 2420
e 2379 2421
e 2379 2422
e 2379 2423
e 2379 2424
e 2379 2425
e 2379 2426
e 2379 2427
e 2379 2428
e 2379 2429
e 2379 2430
e 2379 2431
e 2379 2432
e 2379 2433
e 2379 2434
e 2379 2435
e 2379 2436
e 2379 2437
e 2379 2438
e 2379 2439
e 2379 2440
e 2379 2441
e 2379 2442
e 2379 2443
e 2379 2444
e 2379 2445
e 2379 2446
e 2379 2447
e 2379 2448
e 2379 2449
e 2379 2450
e 2379 2451
e 2379 2452
e 2379 2453
e 2379 2454
e 2379 2455
e 2379 2456
e 2379 2457
e 2458 2459
e 2458 2460
e 2458 2461
e 2458 2462
e 2458 2463
e 2458 2464
e 2458 2465
e 2458 2466
e 2458 2467
e 2458 2468
e 2458 2469
e 2458 2470
e 2458 2471
e 2458 2472
e 2458 2473
e 2458 2474
e 2458 2475
e 2458 2476
e 2458 2477
e 2458 2478
e 2479 2480
e 2479 2481
e 2479 2482
e 2479 2483
e 2479 2484
e 2479 2485
e 2479 2486
e 2479 2487
e 2479 2488
e 2479 2489
e 2479 2490
e 2479 2491
e 2479 2492
e 2479 2493
e 2479 2494
e 2479 2495
e 2479 2496
e 2479 2497
e 2479 2498
e 2479 2499
e 2479 2500
e 2479 2501
e 2479 2502
e 2479 2503
e 2479 2504
e 2479 2505
e 2479 2506
e 2479 2507
e 2479 2508
e 2479 2509
e 2479 2510
e 2479 2511
e 2479 2512
e 2479 2513
e 2479 2514
e 2479 2515
e 2479 2516
e 2479 2517
e 2479 2518
e 2479 2519
e 2479 2520
e 2479 2521
e 2479 2522
e 2479 2523
e 2479 2524
e 2479 2525
e 2479 2526
e 2479 2527
e 2479 2528
e 2479 2529
e 2479 2530
e 2479 2531
e 2479 2532
e 2479 2533
e 2479 2534
e 2479 2535
e 2479 2536
e 2479 2537
e 2479 2538
e 2479 2539
e 2479 2540
e 2479 2541
e 2479 2542
e 2479 2543
e 2479 2544
e 2479 2545
e 2479 2546
e 2479 2547
e 2479 2548
e 2479 2549
e 2479 2550
e 2479 2551
e 2479 2552
e 2479 2553
e 2479 2554
e 2479 2555
e 2479 2556
e 2479 2557
e 2479 2558
e 2479 2559
e 2479 2560
e 2479 2561
e 2479 2562
e 2479 2563
e 2479 2564
e 2479 2565
e 2479 2566
e 2479 2567
e 2479 2568
e 2479 2569
e 2570 2571
e 2570 2572
e 2570 2573
e 2570 2574
e 2570 2575
e 2570 2576
e 2570 2577
e 2570 2578
e 2570 2579
e 2570 2580
e 2570 2581
e 2570 2582
e 2570 2583
e 2570 2584
e 2570 2585
e 2570 2586
e 2570 2587
e 2570 2588
e 2570 2589
e 2570 2590
e 2570 2591
e 2570 2592
e 2570 2593
e 2570 2594
e 2570 2595
e 2570 2596
e 2570 2597
e 2570 2598
e 2570 2599
e 2570 2600
e 2570 2601
e 2570 2602
e 2570 2603
e 2570 2604
e 2570 2605
e 2570 2606
e 2570 2607
e 2570 2608
e 2570 2609
e 2570 2610
e 2570 2611
e 2570 2612
e 2570 2613
e 2570 2614
e 2570 2615
e 2570 2616
e 2570 2617
e 2570 2618
e 2570 2619
e 2570 2620
e 2570 2621
e 2570 2622
e 2570 2623
e 2570 2624
e 2570 2625
e 2570 2626
e 2570 2627
e 2570 2628
e 2570 2629
e 2570 2630
e 2570 2631
e 2570 2632
e 2570 2633
e 2570 2634
e 2570 2635
e 2570 2636
e 2570 2637
e 2570 2638
e 2570 2639
e 2570 2640
e 2570 2641
e 2570 2642
e 2570 2643
e 2570 2644
e 2570 2645
e 2570 2646
e 2570 2647
e 2570 2648
e 2649 2650
e 2649 2651
e 2649 2652
e 2649 2653
e 2649 2654
e 2649 2655
e 2649 2656
e 2649 2657
e 2649 2658
e 2649 2659
e 2649 2660
e 2649 2661
e 2649 2662
e 2649 2663
e 2649 2664
e 2649 2665
e 2649 2666
e 2649 2667
e 2649 2668
e 2649 2669
e 2649 2670
e 2649 2671
e 2649 2672
e 2649 2673
e 2649 2674
e 2649 2675
e 2649 2676
e 2649 2677
e 2649 2678
e 2649 2679
e 2649 2680
e 2649 2681
e 2649 2682
e 2649 2683
e 2649 2684
e 2649 2685
e 2649 2686
e 2649 2687
e 2649 2688
e 2649 2689
e 2649 2690
e 2649 2691
e 2649 2692
e 2649 2693
e 2649 2694
e 2649 2695
e 2696 2697
e 2696 2698
e 2696 2699
e 2696 2700
e 2696 2701
e 2696 2702
e 2696 2703
e 2696 2704
e 2696 2705
e 2696 2706
e 2696 2707
e 2696 2708
e 2696 2709
e 2696 2710
e 2696 2711
e 2696 2712
e 2696 2713
e 2696 2714
e 2696 2715
e 2696 2716
e 2696 2717
e 2696 2718
e 2696 2719
e 2696 2720
e 2696 2721
e 2696 2722
e 2696 2723
e 2696 2724
e 2696 2725
e 2696 2726
e 2696 2727
e 2696 2728
e 2696 2729
e 2696 2730
e 2696 2731
e 2696 2732
e 2696 2733
e 2696 2734
e 2696 2735
e 2696 2736
e 2696 2737
e 2696 2738
e 2696 2739
e 2696 2740
e 2696 2741
e 2696 2742
e 2696 2743
e 2696 2744
e 2696 2745
e 2696 2746
e 2696 2747
e 2696 2748
e 2696 2749
e 2696 2750
e 2696 2751
e 2696 2752
e 2696 2753
e 2754 2755
e 2754 2756
e 2754 2757
e 2754 2758
e 2754 2759
e 2754 2760
e 2754 2761
e 2754 2762
e 2754 2763
e 2754 2764
e 2754 2765
e 2754 2766
e 2754 2767
e 2754 2768
e 2754 2769
e 2754 2770
e 2754 2771
e 2754 2772
e 2754 2773
e 2754 2774
e 2754 2775
e 2754 2776
e 2754 2777
e 2754 2778
e 2754 2779
e 2754 2780
e 2754 2781
e 2754 2782
e 2754 2783
e 2754 2784
e 2754 2785
e 2754 2786
e 2754 2787
e 2754 2788
e 2754 2789
e 2754 2790
e 2754 2791
e 2754 2792
e 2754 2793
e 2754 2794
e 2754 2795
e 2754 2796
e 2754 2797
e 2754 2798
e 2754 2799
e 2754 2800
e 2754 2801
e 2754 2802
e 2754 2803
e 2754 2804
e 2754 2805
e 2806 2807
e 2806 2808
e 2806 2809
e 2806 2810
e 2806 2811
e 2806 2812
e 2806 2813
e 2806 2814
e 2806 2815
e 2806 2816
e 2806 2817
e 2806 2818
e 2806 2819
e 2806 2820
e 2806 2821
e 2806 2822
e 2806 2823
e 2806 2824
e 2806 2825
e 2806 2826
e 2806 2827
e 2806 2828
e 2806 2829
e 2806 2830
e 2806 2831
e 2806 2832
e 2806 2833
e 2806 2834
e 2806 2835
e 2806 2836
e 2806 2837
e 2806 2838
e 2806 2839
e 2806 2840
e 2806 2841
e 2806 2842
e 2806 2843
e 2806 2844
e 2806 2845
e 2806 2846
e 2806 2847
e 2806 2848
e 2806 2849
e 2806 2850
e 2806 2851
e 2806 2852
e 2806 2853
e 2806 2854
e 2806 2855
e 2806 2856
e 2806 2857
e 2806 2858
e 2806 2859
e 2806 2860
e 2806 2861
e 2806 2862
e 2806 2863
e 2806 2864
e 2806 2865
e 2806 2866
e 2806 2867
e 2806 2868
e 2806 2869
e 2806 2870
e 2806 2871
e 2806 2872
e 2806 2873
e 2806 2874
e 2806 2875
e 2806 2876
e 2806 2877
e 2806 2878
e 2806 2879
e 2806 2880
e 2806 2881
e 2806 2882
e 2806 2883
e 2806 2884
e 2806 2885
e 2806 2886
e 2806 2887
e 2806 2888
e 2806 2889
e 2806 2890
e 2806 2891
e 2806 2892
e 2806 2893
e 2806 2894
e 2806 2895
e 2896 2897
e 2896 2898
e 2896 2899
e 2896 2900
e 2896 2901
e 2896 2902
e 2896 2903
e 2896 2904
e 2896 2905
e 2896 2906
e 2896 2907
e 2896 2908
e 2896 2909
e 2896 2910
e 2896 2911
e 2896 2912
e 2896 2913
e 2896 2914
e 2896 2915
e 2896 2916
e 2896 2917
e 2896 2918
e 2896 2919
e 2896 2920
e 2896 2921
e 2896 2922
e 2896 2923
e 2896 2924
e 2896 2925
e 2896 2926
e 2896 2927
e 2896 2928
e 2896 2929
e 2896 2930
e 2896 2931
e 2896 2932
e 2896 2933
e 2896 2934
e 2896 2935
e 2896 2936
e 2896 2937
e 2896 2938
e 2896 2939
e 2896 2940
e 2896 2941
e 2896 2942
e 2896 2943
e 2896 2944
e 2896 2945
e 2896 2946
e 2896 2947
e 2896 2948
e 2896 2949
e 2896 2950
e 2896 2951
e 2896 2952
e 2896 2953
e 2896 2954
e 2896 2955
e 2896 2956
e 2896 2957
e 2896 2958
e 2896 2959
e 2960 2961
e 2960 2962
e 2960 2963
e 2960 2964
e 2960 2965
e 2960 2966
e 2960 2967
e 2960 2968
e 2960 2969
e 2960 2970
e 2960 2971
e 2960 2972
e 2960 2973
e 2960 2974
e 2960 2975
e 2960 2976
e 2960 2977
e 2960 2978
e 2960 2979
e 2960 2980
e 2960 2981
e 2960 2982
e 2960 2983
e 2960 2984
e 2960 2985
e 2960 2986
e 2960 2987
e 2960 2988
e 2960 2989
e 2960 2990
e 2960 2991
e 2960 2992
e 2960 2993
e 2960 2994
e 2960 2995
e 2960 2996
e 2960 2997
e 2960 2998
e 2960 2999
e 2960 3000
e 2960 3001
e 2960 3002
e 2960 3003
e 2960 3004
e 2960 3005
e 2960 3006
e 2960 3007
e 2960 3008
e 2960 3009
e 2960 3010
e 2960 3011
e 2960 3012
e 2960 3013
e 2960 3014
e 2960 3015
e 3016 3017
e 3016 3018
e 3016 3019
e 3016 3020
e 3016 3021
e 3016 3022
e 3016 3023
e 3016 3024
e 3016 3025
e 3016 3026
e 3016 3027
e 3016 3028
e 3016 3029
e 3016 3030
e 3016 3031
e 3016 3032
e 3016 3033
e 3016 3034
e 3016 3035
e 3016 3036
e 3016 3037
e 3016 3038
e 3016 3039
e 3016 3040
e 3016 3041
e 3016 3042
e 3016 3043
e 3016 3044
e 3016 3045
e 3016 3046
e 3016 3047
e 3016 3048
e 3016 3049
e 3016 3050
e 3016 3051
e 3016 3052
e 3016 3053
e 3016 3054
e 3055 3056
e 3055 3057
e 3055 3058
e 3055 3059
e 3055 3060
e 3055 3061
e 3055 3062
e 3055 3063
e 3055 3064
e 3055 3065
e 3055 3066
e 3055 3067
e 3055 3068
e 3055 3069
e 3055 3070
e 3055 3071
e 3055 3072
e 3055 3073
e 3055 3074
e 3055 3075
e 3055 3076
e 3055 3077
e 3055 3078
e 3055 3079
e 3055 3080
e 3055 3081
e 3055 3082
e 3055 3083
e 3055 3084
e 3055 3085
e 3055 3086
e 3055 3087
e 3055 3088
e 3055 3089
e 3055 3090
e 3055 3091
e 3055 3092
e 3055 3093
e 3055 3094
e 3095 3096
e 3095 3097
e 3095 3098
e 3095 3099
e 3095 3100
e 3095 3101
e 3095 3102
e 3095 3103
e 3095 3104
e 3095 3105
e 3095 3106
e 3095 3107
e 3095 3108
e 3095 3109
e 3095 3110
e 3095 3111
e 3095 3112
e 3095 3113
e 3095 3114
e 3095 3115
e 3095 3116
e 3095 3117
e 3095 3118
e 3095 3119
e 3095 3120
e 3095 3121
e 3095 3122
e 3095 3123
e 3095 3124
e 3095 3125
e 3095 3126
e 3095 3127
e 3095 3128
e 3095 3129
e 3095 3130
e 3095 3131
e 3095 3132
e 3095 3133
e 3095 3134
e 3095 3135
e 3095 3136
e 3095 3137
e 3095 3138
e 3095 3139
e 3095 3140
e 3095 3141
e 3095 3142
e 3095 3143
e 3095 3144
e 3095 3145
e 3095 3146
e 3095 3147
e 3095 3148
e 3095 3149
e 3095 3150
e 3095 3151
e 3095 3152
e 3095 3153
e 3095 3154
e 3095 3155
e 3095 3156
e 3095 3157
e 3095 3158
e 3095 3159
e 3095 3160
e 3095 3161
e 3095 3162
e 3095 3163
e 3095 3164
e 3095 3165
e 3095 3166
e 3095 3167
e 3095 3168
e 3169 3170
e 3169 3171
e 3169 3172
e 3169 3173
e 3169 3174
e 3169 3175
e 3169 3176
e 3169 3177
e 3169 3178
e 3169 3179
e 3169 3180
e 3169 3181
e 3169 3182
e 3169 3183
e 3169 3184
e 3169 3185
e 3169 3186
e 3169 3187
e 3169 3188
e 3169 3189
e 3169 3190
e 3169 3191
e 3169 3192
e 3169 3193
e 3169 3194
e 3169 3195
e 3169 3196
e 3169 3197
e 3169 3198
e 3169 3199
e 3169 3200
e 3169 3201
e 3169 3202
e 3169 3203
e 3169 3204
e 3169 3205
e 3169 3206
e 3169 3207
e 3169 3208
e 3169 3209
e 3169 3210
e 3169 3211
e 3169 3212
e 3169 3213
e 3169 3214
e 3215 3216
e 3215 3217
e 3215 3218
e 3215 3219
e 3215 3220
e 3215 3221
e 3215 3222
e 3215 3223
e 3215 3224
e 3215 3225
e 3215 3226
e 3215 3227
e 3215 3228
e 3215 3229
e 3215 3230
e 3215 3231
e 3215 3232
e 3215 3233
e 3215 3234
e 3215 3235
e 3215 3236
e 3215 3237
e 3215 3238
e 3215 3239
e 3215 3240
e 3215 3241
e 3215 3242
e 3215 3243
e 3215 3244
e 3245 3246
e 3245 3247
e 3245 3248
e 3245 3249
e 3245 3250
e 3245 3251
e 3245 3252
e 3245 3253
e 3245 3254
e 3245 3255
e 3245 3256
e 3245 3257
e 3245 3258
e 3245 3259
e 3245 3260
e 3245 3261
e 3245 3262
e 3245 3263
e 3245 3264
e 3245 3265
e 3245 3266
e 3245 3267
e 3245 3268
e 3245 3269
e 3245 3270
e 3245 3271
e 3245 3272
e 3245 3273
e 3245 3274
e 3245 3275
e 3245 3276
e 3245 3277
e 3245 3278
e 3245 3279
e 3245 3280
e 3245 3281
e 3245 3282
e 3245 3283
e 3245 3284
e 3245 3285
e 3245 3286
e 3245 3287
e 3245 3288
e 3245 3289
e 3245 3290
e 3245 3291
e 3245 3292
e 3245 3293
e 3245 3294
e 3245 3295
e 3245 3296
e 3245 3297
e 3245 3298
e 3245 3299
e 3245 3300
e 3245 3301
e 3245 3302
e 3245 3303
e 3245 3304
e 3245 3305
e 3245 3306
e 3245 3307
e 3245 3308
e 3245 3309
e 3245 3310
e 3245 3311
e 3245 3312
e 3245 3313
e 3245 3314
e 3245 3315
e 3245 3316
e 3245 3317
e 3245 3318
e 3245 3319
e 3245 3320
e 3245 3321
e 3245 3322
e 3245 3323
e 3245 3324
e 3325 3326
e 3325 3327
e 3325 3328
e 3325 3329
e 3325 3330
e 3325 3331
e 3325 3332
e 3325 3333
e 3325 3334
e 3325 3335
e 3325 3336
e 3325 3337
e 3325 3338
e 3325 3339
e 3325 3340
e 3325 3341
e 3325 3342
e 3325 3343
e 3325 3344
e 3325 3345
e 3325 3346
e 3325 3347
e 3325 3348
e 3325 3349
e 3325 3350
e 3325 3351
e 3325 3352
e 3325 3353
e 3325 3354
e 3325 3355
e 3325 3356
e 3325 3357
e 3325 3358
e 3325 3359
e 3325 3360
e 3325 3361
e 3325 3362
e 3325 3363
e 3325 3364
e 3325 3365
e 3325 3366
e 3325 3367
e 3325 3368
e 3325 3369
e 3325 3370
e 3325 3371
e 3325 3372
e 3325 3373
e 3325 3374
e 3325 3375
e 3325 3376
e 3325 3377
e 3325 3378
e 3325 3379
e 3325 3380
e 3325 3381
e 3325 3382
e 3325 3383
e 3325 3384
e 3325 3385
e 3325 3386
e 3325 3387
e 3388 3389
e 3388 3390
e 3388 3391
e 3388 3392
e 3388 3393
e 3388 3394
e 3388 3395
e 3388 3396
e 3388 3397
e 3388 3398
e 3388 3399
e 3388 3400
e 3388 3401
e 3388 3402
e 3388 3403
e 3388 3404
e 3388 3405
e 3388 3406
e 3388 3407
e 3388 3408
e 3388 3409
e 3388 3410
e 3388 3411
e 3388 3412
e 3388 3413
e 3388 3414
e 3388 3415
e 3388 3416
e 3388 3417
e 3388 3418
e 3388 3419
e 3388 3420
e 3388 3421
e 3388 3422
e 3388 3423
e 3388 3424
e 3388 3425
e 3388 3426
e 3388 3427
e 3388 3428
e 3388 3429
e 3388 3430
e 3431 3432
e 3431 3433
e 3431 3434
e 3431 3435
e 3431 3436
e 3431 3437
e 3431 3438
e 3431 3439
e 3431 3440
e 3431 3441
e 3431 3442
e 3431 3443
e 3431 3444
e 3431 3445
e 3431 3446
e 3431 3447
e 3431 3448
e 3431 3449
e 3431 3450
e 3431 3451
e 3431 3452
e 3431 3453
e 3431 3454
e 3431 3455
e 3431 3456
e 3431 3457
e 3431 3458
e 3431 3459
e 3431 3460
e 3431 3461
e 3431 3462
e 3431 3463
e 3431 3464
e 3431 3465
e 3431 3466
e 3431 3467
e 3431 3468
e 3431 3469
e 3431 3470
e 3431 3471
e 3431 3472
e 3431 3473
e 3431 3474
e 3431 3475
e 3431 3476
e 3431 3477
e 3431 3478
e 3431 3479
e 3431 3480
e 3431 3481
e 3431 3482
e 3431 3483
e 3431 3484
e 3431 3485
e 3431 3486
e 3431 3487
e 3431 3488
e 3431 3489
e 3431 3490
e 3431 3491
e 3431 3492
e 3431 3493
e 3431 3494
e 3431 3495
e 3431 3496
e 3431 3497
e 3431 3498
e 3431 3499
e 3431 3500
e 3431 3501
e 3431 3502
e 3431 3503
e 3431 3504
e 3431 3505
